142 6 47 124 180 27 192 121 66 157 64 
131 200 63 149 159 138 71 123 8 1 2 83 
54 65 155 113 134 191 135 93 120 
28 153 49 78 62 172 42 186 77 115 82 36 
24 196 183 43 105 58 194 81 70 
103 18 7 179 111 178 96 76 
40 147 100 37 12 89 143 29 86 166 
48 156 102 173 112 109 55 41 126 19 
15 85 38 32 52 101 158 17 39 
195 61 165 99 189 174 185 67 
163 162 25 26 46 181 104 79 73 
84 20 176 144 87 60 146 148 
59 177 168 188 139 21 50 91 97 
14 169 72 16 151 125 11 13 141 193 175 
92 182 57 152 167 184 51 116 95 34 
31 119 161 198 22 33 107 154 30 75 
170 171 130 187 90 44 80 
140 9 108 117 23 114 45 160 128 
197 5 3 136 110 106 
4 199 127 69 88 137 
190 68 98 133 129 145 
132 10 35 164 122 
118 94 53 74 
56 150 

